p cnf 3420 3051
c ind 1247 1248 1249 1250 1251 1252 1253 1254 1255 1256 0
c ind 1257 1258 1259 1260 1261 1262 1263 1264 1265 1266 0
c ind 1267 1268 1269 1270 1271 1272 1273 1274 1275 1276 0
c ind 1277 1278 1279 1280 1281 1282 1283 1284 1285 1286 0
c ind 1287 1288 1289 1290 1291 1292 1293 1294 1295 1296 0
c ind 1297 1298 1299 1300 1301 1302 1303 1304 1305 1306 0
c ind 1307 1308 1309 1310 1311 1312 1313 1314 1315 1316 0
c ind 1317 1318 1319 1320 1321 1322 1323 1324 1325 1326 0
c ind 1327 1328 1329 1330 1331 1332 1333 1334 1335 1336 0
c ind 1337 1338 1339 1340 1341 1342 1343 1344 1345 1346 0
c ind 1347 1348 1349 1350 1351 1352 1353 1354 1355 1356 0
c ind 1357 1358 1359 1360 1361 1362 1363 1364 1365 1366 0
c ind 1367 1368 1369 1370 1371 1372 1373 1374 1375 1376 0
c ind 1377 1378 1379 1380 1381 1382 1383 1384 1385 1386 0
c ind 1387 1388 1389 1390 1391 1392 1393 1394 1395 1396 0
c ind 1397 1398 1399 1400 1401 1402 1403 1404 1405 1406 0
c ind 1407 1408 1409 1410 1411 1412 1169 1413 1414 1195 0
c ind 1196 1197 1198 1515 1516 1517 1518 1519 1520 1521 0
c ind 1522 1123 1124 1125 1126 1127 1128 1129 1130 1131 0
c ind 1415 1416 1132 1133 1417 1418 1134 1135 1136 1137 0
c ind 1138 1139 1140 1141 1142 1143 1144 1145 1172 1173 0
c ind 1170 1174 1175 1419 1176 1420 1177 1178 1421 1179 0
c ind 1422 1180 1181 1182 1183 1184 1185 1186 1187 1188 0
c ind 1189 1190 1423 1191 1192 1193 1194 1146 1424 1147 0
c ind 1148 1425 1149 1150 1426 1151 1427 1152 1153 1154 0
c ind 1155 1156 1157 1158 1159 1160 1161 1162 1163 1164 0
c ind 1428 1165 1171 1166 1167 1429 1168 1430 1907 1908 0
c ind 1909 1431 1910 1432 1911 1912 1913 1914 1915 1916 0
c ind 1917 1918 1919 1920 1921 1922 1923 1924 1925 1926 0
c ind 1927 1928 1433 1929 1434 1053 1054 1055 1435 1436 0
c ind 1056 1057 1058 1059 1060 1061 1062 1063 1064 1065 0
c ind 1437 1066 1881 1067 1068 1069 1070 1071 1072 1438 0
c ind 1073 1439 1074 1075 1440 1441 1884 1885 1886 1887 0
c ind 1888 1889 1890 1891 1442 1892 1443 1893 1894 1895 0
c ind 1444 1896 1897 1898 1899 1900 1901 1902 1903 1904 0
c ind 1905 1906 1492 1493 1494 1445 1495 1496 1497 1498 0
c ind 1446 1499 1447 1500 1448 1501 1449 1502 1503 1504 0
c ind 1505 1506 1507 1508 1509 1510 1511 1512 1513 1514 0
c ind 1199 1200 1201 1202 1203 1204 1205 1206 1207 1208 0
c ind 1209 1210 1211 1212 1213 1214 1882 1215 1216 1217 0
c ind 1218 1219 1220 1221 1523 1524 1525 1526 1527 1528 0
c ind 1529 1530 1531 1532 1533 1534 1535 1536 1537 1538 0
c ind 1539 1540 1541 1542 1543 1544 1545 1546 1547 1548 0
c ind 1549 1550 1551 1552 1553 1076 1883 1077 1078 1079 0
c ind 1080 1081 1082 1083 1084 1085 1086 1087 1088 1089 0
c ind 1090 1091 1092 1093 1094 1095 1096 1097 1098 1099 0
c ind 1100 1101 1102 1103 1104 1105 1106 1107 1108 1109 0
c ind 1110 1111 1112 1113 1114 1115 1116 1117 1118 1119 0
c ind 1120 1121 1122 1222 1223 1224 1225 1226 1227 1228 0
c ind 1229 1230 1231 1232 1233 1234 1235 1236 1237 1238 0
c ind 1239 1240 1241 1242 1243 1244 1245 1246 0
904 -905 1025 0
904 -905 934 0
904 -905 1013 0
-904 905 0
-934 -1013 -904 -1025 0
905 -906 921 -922 0
905 -906 920 -922 0
-905 922 0
-905 906 0
-920 -921 -905 0
906 907 -911 0
-906 -907 0
-906 911 0
-908 -1137 907 0
-910 -1137 907 0
-909 -1137 907 0
-907 1137 0
-907 908 909 910 0
908 -1143 1144 1145 0
-908 1143 0
-908 -1145 0
-908 -1144 0
909 1143 1172 1173 0
-909 -1143 0
-909 -1173 0
-909 -1172 0
910 -1138 1139 1140 0
-910 1138 0
-910 -1140 0
-910 -1139 0
911 912 916 -1168 -1189 0
-911 1189 0
-911 -916 0
-911 1168 0
-911 -912 0
913 1907 912 1908 1909 0
-912 -913 0
-912 -1909 0
-912 -1907 0
-912 -1908 0
913 914 -1912 0
913 914 915 -1913 0
-913 -914 0
-913 -915 1912 0
-913 1912 1913 0
914 1910 -1911 0
-914 -1910 0
-914 1911 0
915 1918 1919 0
915 1918 1926 1927 0
-915 -1918 0
-915 -1919 -1926 0
-915 -1919 -1927 0
917 1190 916 1191 1192 0
-916 -917 0
-916 -1192 0
-916 -1190 0
-916 -1191 0
917 918 -1146 0
917 918 919 -1147 0
-917 -918 0
-917 -919 1146 0
-917 1146 1147 0
918 1193 -1194 0
-918 -1193 0
-918 1194 0
919 1152 1153 0
919 1152 1160 1161 0
-919 -1152 0
-919 -1153 -1160 0
-919 -1153 -1161 0
920 1553 0
920 -1076 1082 0
920 1076 1083 0
-920 -1076 -1082 -1553 0
-920 1076 -1083 -1553 0
921 1553 0
921 1076 -1083 0
921 -1076 -1082 0
-921 1076 1083 -1553 0
-921 -1076 1082 -1553 0
922 -923 933 -1882 0
922 -923 933 1883 0
-922 923 0
-922 -933 0
1882 -1883 -922 0
923 -926 1524 0
923 -926 1216 0
923 924 -926 0
-923 926 0
-924 -1216 -923 -1524 0
924 -925 -1525 1526 0
-924 1525 0
-924 -1526 0
-924 925 0
925 1528 -1529 -1530 1531 0
-925 -1528 0
-925 -1531 0
-925 1530 0
-925 1529 0
926 927 -930 932 0
926 927 -930 1169 0
-926 930 0
-926 -927 0
-932 -1169 -926 0
-928 -929 927 -1205 0
-928 -929 927 -1206 0
-927 929 0
-927 928 0
-927 1205 1206 0
928 1208 1209 1210 1211 0
-928 -1211 0
-928 -1210 0
-928 -1208 0
-928 -1209 0
929 -1202 -1203 -1204 1207 0
-929 1204 0
-929 -1207 0
-929 1202 0
-929 1203 0
930 -931 -1319 -1348 -1377 0
-930 931 0
-930 1319 0
-930 1377 0
-930 1348 0
931 -1104 -1232 -1261 -1290 0
-931 1290 0
-931 1104 0
-931 1261 0
-931 1232 0
932 1492 1905 1906 0
-932 -1492 0
-932 -1906 0
-932 -1905 0
1171 1881 933 0
-933 -1171 0
-933 -1881 0
934 -935 1003 1989 0
934 -935 -1003 -1989 0
-934 935 0
-934 1003 -1989 0
-934 -1003 1989 0
935 -936 -954 0
935 -954 2006 0
-935 954 0
-935 936 -2006 0
936 -938 -937 0
936 952 -937 0
-936 937 0
-936 938 -952 0
921 937 -930 0
920 937 -930 0
930 -937 0
-920 -921 -937 0
938 -939 950 -951 0
938 -950 -951 -1449 0
-938 951 0
-938 939 950 0
-938 -950 1449 0
939 -940 -1448 0
939 940 -941 0
-939 -940 1448 0
-939 940 941 0
940 1219 -1221 0
-940 -1219 0
-940 1221 0
941 942 927 949 0
941 942 927 -946 0
-927 -941 0
-941 -942 0
-941 946 -949 0
942 -944 1169 -1511 0
942 943 1169 1511 0
-942 -1169 0
-942 944 -1511 0
-942 -943 1511 0
943 -1445 -906 0
-943 1445 0
906 -943 0
944 -945 1446 0
943 944 945 0
-944 -945 -1446 0
-943 -944 945 0
945 1892 -1894 0
-945 -1892 0
-945 1894 0
944 946 -947 0
-944 -946 0
-946 947 0
947 948 -1492 0
947 948 -1905 0
947 948 -1906 0
-947 -948 0
-947 1492 1905 1906 0
948 1498 -1500 0
-948 -1498 0
-948 1500 0
948 949 -1169 0
949 -1169 1447 0
-949 1169 0
-948 -949 -1447 0
950 1548 -1550 0
-950 -1548 0
-950 1550 0
951 -1216 1524 0
-951 1216 0
-951 -1524 0
952 953 -1216 0
939 941 952 0
941 952 953 0
939 952 -1216 0
-941 -952 1216 0
-939 -952 -953 0
924 953 -1216 -1524 0
-953 1216 0
-953 1524 0
-924 -953 0
954 -955 993 1455 0
954 -955 -993 -1455 0
-954 955 0
-954 993 -1455 0
-954 -993 1455 0
955 -992 -956 1969 0
955 992 -956 -1969 0
-955 956 0
-955 -992 -1969 0
-955 992 1969 0
956 -966 -957 0
-956 957 0
-956 966 0
957 -937 -958 0
957 -937 965 0
937 -957 0
958 -965 -957 0
950 -951 958 -959 0
-950 -951 958 -1422 0
951 -958 0
950 -958 959 0
-950 -958 1422 0
-940 959 -1421 0
940 959 -960 0
-940 -959 1421 0
940 -959 960 0
960 961 927 964 0
960 961 927 -963 0
-927 -960 0
-960 -961 0
-960 963 -964 0
961 -962 1169 -1511 0
906 961 1169 1511 0
-961 -1169 0
-961 962 -1511 0
-961 1511 -906 0
906 945 962 0
-945 962 1419 0
945 -962 -906 0
-945 -962 -1419 0
-947 962 963 0
947 -963 0
-962 -963 0
948 964 -1169 0
964 -1169 1420 0
-964 1169 0
-948 -964 -1420 0
959 965 -1216 0
953 960 965 0
959 960 965 0
953 965 -1216 0
-953 -959 -965 0
-960 -965 1216 0
966 -967 -974 0
966 969 -972 -974 0
-966 974 0
967 -969 -966 0
967 972 -966 0
-940 967 -1216 0
967 -968 -1216 0
-967 1216 0
940 -967 968 0
-950 968 -1436 1524 0
-968 1436 0
-968 -1524 0
950 -968 0
969 -971 1169 -1511 0
969 970 1169 1511 0
-969 -1169 0
-969 971 -1511 0
-969 -970 1511 0
970 -1882 -906 0
-970 1882 0
906 -970 0
-945 971 1433 0
945 970 971 0
-945 -971 -1433 0
945 -970 -971 0
972 973 927 0
-947 971 927 972 0
-927 -972 0
947 -972 -973 0
-971 -972 -973 0
948 973 -1169 0
973 -1169 1434 0
-973 1169 0
-948 -973 -1434 0
974 -975 -977 -982 0
974 977 -979 -982 0
-974 982 0
975 -977 -974 0
977 979 -974 0
975 -1414 -1444 0
975 976 -1444 0
-975 1444 0
-975 -976 1414 0
976 -1406 -911 1408 0
-976 1406 0
-976 -1408 0
911 -976 0
977 1062 -1169 0
977 978 1062 0
977 1062 -1199 0
-977 -1062 0
-977 -978 1169 1199 0
978 1511 1512 1513 1514 0
-978 -1514 0
-978 -1513 0
-978 -1511 0
-978 -1512 0
979 981 -911 -1412 0
979 980 -911 981 0
911 -979 0
-979 -981 0
-979 -980 1412 0
980 -1406 1408 0
-980 1406 0
-980 -1408 0
-907 981 1406 0
981 1406 1443 1516 0
-981 -1406 0
-981 -1443 907 0
-981 -1516 907 0
982 -983 -937 991 0
982 -983 -937 987 0
937 -982 0
-982 983 0
-987 -991 -982 0
983 985 -923 0
983 984 -923 -1553 0
923 -983 0
-985 1553 -983 0
-984 -985 -983 0
-921 984 0
984 -1084 1090 0
984 1084 1091 0
921 -984 -1084 -1090 0
921 -984 1084 -1091 0
-920 -921 985 0
-920 985 -986 0
920 -985 0
921 -985 986 0
-921 986 0
986 1084 -1091 0
986 -1084 -1090 0
921 -986 -1084 1090 0
921 -986 1084 1091 0
-940 987 -1216 0
987 988 -1216 0
-987 1216 0
940 -987 -988 0
988 989 990 0
925 988 989 -1216 0
-988 -989 0
-988 -990 1216 0
-925 -988 -990 0
-950 989 1524 0
-989 -1524 0
950 -989 0
990 -1524 -1525 1526 0
-990 1524 0
-990 1525 0
-990 -1526 0
968 988 991 0
968 991 1435 0
-968 -991 0
-988 -991 -1435 0
-976 992 -983 0
976 -992 0
983 -992 0
993 -994 -937 0
993 1002 -937 0
937 -993 0
-993 994 -1002 0
950 -951 994 -995 0
-950 -951 994 -1418 0
951 -994 0
950 -994 995 0
-950 -994 1418 0
-940 995 -1417 0
940 995 -996 0
-940 -995 1417 0
940 -995 996 0
996 997 927 1001 0
996 997 927 -1000 0
-927 -996 0
-996 -997 0
-996 1000 -1001 0
997 998 -1169 1416 0
948 997 998 -1169 0
-997 1169 0
-997 -998 0
-948 -997 -1416 0
-947 998 999 0
947 -998 0
-998 -999 0
945 999 1883 0
-945 999 1415 0
906 945 999 0
-945 -999 -1415 0
945 -999 -906 -1883 0
1000 1511 -906 -1883 0
945 1000 -906 -1883 0
906 -1000 0
-1000 1883 0
-945 -1000 -1511 0
1001 1169 1511 0
1001 1169 1415 0
945 1001 1169 0
-1001 -1169 0
-945 -1001 -1415 -1511 0
995 1002 -1216 0
953 996 1002 0
995 996 1002 0
953 1002 -1216 0
-953 -995 -1002 0
-996 -1002 1216 0
1003 1010 -937 0
1003 1004 -937 -1007 0
937 -1003 0
-1003 -1004 -1010 0
-1003 1007 -1010 0
1004 -1006 1169 -1511 0
1004 1005 1169 1511 0
-1004 -1169 0
-1004 1006 -1511 0
-1004 -1005 1511 0
1005 -1428 -906 0
-1005 1428 0
906 -1005 0
-945 1006 1429 0
945 1005 1006 0
-945 -1006 -1429 0
945 -1005 -1006 0
1007 -1008 1009 0
-947 1006 1007 -1008 0
-1007 1008 0
947 -1007 -1009 0
-1006 -1007 -1009 0
987 1008 927 0
-927 -1008 0
-987 -1008 0
948 1009 -1169 0
1009 -1169 1430 0
-1009 1169 0
-948 -1009 -1430 0
950 1010 1011 0
951 1010 1011 0
1010 1011 1432 0
-1010 -1011 0
-950 -951 -1010 -1432 0
-940 1011 -1012 -1431 0
-1011 1431 0
940 -1011 0
-1011 1012 0
-988 1012 -1216 0
-1012 1216 0
988 -1012 0
1013 -1014 1024 -1984 0
1013 1014 1024 1984 0
-1013 -1024 0
-1013 1014 -1984 0
-1013 -1014 1984 0
1014 -1015 -937 0
1014 1023 -937 0
937 -1014 0
-1014 1015 -1023 0
950 -951 1015 -1016 0
-950 -951 1015 -1427 0
951 -1015 0
950 -1015 1016 0
-950 -1015 1427 0
-940 1016 -1426 0
940 1016 -1017 0
-940 -1016 1426 0
940 -1016 1017 0
1017 1018 927 1022 0
1017 1018 927 -1021 0
-927 -1017 0
-1017 -1018 0
-1017 1021 -1022 0
1018 -1020 1169 -1511 0
1018 1019 1169 1511 0
-1018 -1169 0
-1018 1020 -1511 0
-1018 -1019 1511 0
1019 -1423 -906 0
-1019 1423 0
906 -1019 0
-945 1020 1424 0
945 1019 1020 0
-945 -1020 -1424 0
945 -1019 -1020 0
-947 1020 1021 0
947 -1021 0
-1020 -1021 0
948 1022 -1169 0
1022 -1169 1425 0
-1022 1169 0
-948 -1022 -1425 0
1016 1023 -1216 0
953 1017 1023 0
1016 1017 1023 0
953 1023 -1216 0
-953 -1016 -1023 0
-1017 -1023 1216 0
-936 1024 2006 0
-1024 -2006 0
936 -1024 0
1025 -1026 -1998 0
1025 1026 1998 0
-1025 -1026 1998 0
-1025 1026 -1998 0
1026 1032 -937 0
1026 1027 -937 -1030 0
937 -1026 0
-1026 -1027 -1032 0
-1026 1030 -1032 0
1027 -1029 1169 -1511 0
1027 1028 1169 1511 0
-1027 -1169 0
-1027 1029 -1511 0
-1027 -1028 1511 0
1028 -1437 -906 0
-1028 1437 0
906 -1028 0
-945 1029 1438 0
945 1028 1029 0
-945 -1029 -1438 0
945 -1028 -1029 0
-1008 1030 1031 0
-947 -1008 1029 1030 0
1008 -1030 0
947 -1030 -1031 0
-1029 -1030 -1031 0
948 1031 -1169 0
1031 -1169 1439 0
-1031 1169 0
-948 -1031 -1439 0
950 1032 1033 0
951 1032 1033 0
1032 1033 1441 0
-1032 -1033 0
-950 -951 -1032 -1441 0
-940 -1012 1033 -1440 0
-1033 1440 0
940 -1033 0
1012 -1033 0
1039 -905 1034 0
1035 -905 1034 0
905 -1034 0
-1034 -1035 -1039 0
993 1035 -957 -1036 2413 0
-993 1035 -957 -1036 -2413 0
-1035 1036 0
993 -2413 -1035 0
957 -1035 0
-993 2413 -1035 0
1036 -1037 -1038 2947 0
-1003 1036 -1037 -1038 0
-1036 1038 0
-1036 1037 0
1003 -2947 -1036 0
-992 1037 -966 2927 0
992 1037 -966 -2927 0
966 -1037 0
-992 -2927 -1037 0
992 2927 -1037 0
1026 1038 -2947 2956 0
1003 -1026 1038 -2956 0
-1026 1038 -2947 -2956 0
1003 1026 1038 2956 0
-1026 2956 -1038 0
1026 -2956 -1038 0
-1003 2947 -1038 0
936 -1014 1039 -2942 2964 0
-936 -1014 1039 -2942 -2964 0
936 1014 1039 2942 2964 0
-936 1014 1039 2942 -2964 0
-1014 2942 -1039 0
1014 -2942 -1039 0
936 -2964 -1039 0
-936 2964 -1039 0
1013 1040 -905 0
934 1040 -905 0
-1026 1040 -905 0
905 -1040 0
-934 -1013 1026 -1040 0
-1014 1041 -905 0
934 1041 -905 0
-1024 1041 -905 0
905 -1041 0
-934 1014 1024 -1041 0
-1003 1042 -905 0
935 1042 -905 0
-1024 1042 -905 0
905 -1042 0
-935 1003 1024 -1042 0
-936 1043 -905 0
954 1043 -905 0
905 -1043 0
936 -954 -1043 0
-993 1044 -905 0
955 1044 -905 0
905 -1044 0
-955 993 -1044 0
992 1045 -905 0
956 1045 -905 0
905 -1045 0
-992 -1045 -956 0
956 1046 -905 0
905 -1046 0
-956 -1046 0
1026 1047 -905 0
934 1047 -905 0
1013 1047 -905 0
905 -1047 0
-934 -1013 -1026 -1047 0
1014 1048 -905 0
934 1048 -905 0
-1024 1048 -905 0
905 -1048 0
-934 -1014 1024 -1048 0
1003 1049 -905 0
935 1049 -905 0
-1024 1049 -905 0
905 -1049 0
-935 -1003 1024 -1049 0
954 1050 -905 0
936 1050 -905 0
905 -1050 0
-936 -954 -1050 0
993 1051 -905 0
955 1051 -905 0
905 -1051 0
-955 -993 -1051 0
-992 1052 -905 0
956 1052 -905 0
905 -1052 0
992 -1052 -956 0
1 904 0
-1 -904 0
2 904 0
-2 -904 0
3 1034 0
-3 -1034 0
106 -1040 0
-106 1040 0
107 -1041 0
-107 1041 0
108 -1042 0
-108 1042 0
109 -1043 0
-109 1043 0
113 -1044 0
-113 1044 0
139 -1045 0
-139 1045 0
356 -1046 0
-356 1046 0
556 -1047 0
-556 1047 0
557 -1048 0
-557 1048 0
558 -1049 0
-558 1049 0
559 -1050 0
-559 1050 0
563 -1051 0
-563 1051 0
589 -1052 0
-589 1052 0
806 -1046 0
-806 1046 0
-106 -556 3072 0
106 -3072 0
556 -3072 0
106 -1998 0
-106 1998 0
-107 -557 3073 0
107 -3073 0
557 -3073 0
107 -1984 0
-107 1984 0
-108 -558 3074 0
108 -3074 0
558 -3074 0
108 -1989 0
-108 1989 0
-109 -559 3075 0
109 -3075 0
559 -3075 0
109 -2006 0
-109 2006 0
-113 -563 3079 0
113 -3079 0
563 -3079 0
113 -1455 0
-113 1455 0
-139 -589 3105 0
139 -3105 0
589 -3105 0
139 -1969 0
-139 1969 0
-356 -806 3322 0
356 -3322 0
806 -3322 0
356 -1631 0
-356 1631 0
-1 0
-2 0
3 0
4 0
5 0
6 0
7 0
8 0
9 0
10 0
11 0
12 0
13 0
14 0
15 0
16 0
17 0
18 0
19 0
20 0
21 0
22 0
23 0
24 0
25 0
26 0
27 0
28 0
29 0
30 0
31 0
32 0
33 0
34 0
35 0
36 0
37 0
38 0
39 0
40 0
41 0
42 0
43 0
44 0
45 0
46 0
47 0
48 0
49 0
50 0
51 0
52 0
53 0
54 0
55 0
56 0
57 0
58 0
59 0
60 0
61 0
62 0
63 0
64 0
65 0
66 0
67 0
68 0
69 0
70 0
71 0
72 0
73 0
74 0
75 0
76 0
77 0
78 0
79 0
80 0
81 0
82 0
83 0
84 0
85 0
86 0
87 0
88 0
89 0
90 0
91 0
92 0
93 0
94 0
95 0
96 0
97 0
98 0
99 0
100 0
101 0
102 0
103 0
104 0
105 0
110 0
111 0
112 0
114 0
115 0
116 0
117 0
118 0
119 0
120 0
121 0
122 0
123 0
124 0
125 0
126 0
127 0
128 0
129 0
130 0
131 0
132 0
133 0
134 0
135 0
136 0
137 0
138 0
140 0
141 0
142 0
143 0
144 0
145 0
146 0
147 0
148 0
149 0
150 0
151 0
152 0
153 0
154 0
155 0
156 0
157 0
158 0
159 0
160 0
161 0
162 0
163 0
164 0
165 0
166 0
167 0
168 0
169 0
170 0
171 0
172 0
173 0
174 0
175 0
176 0
177 0
178 0
179 0
180 0
181 0
182 0
183 0
184 0
185 0
186 0
187 0
188 0
189 0
190 0
191 0
192 0
193 0
194 0
195 0
196 0
197 0
198 0
199 0
200 0
201 0
202 0
203 0
204 0
205 0
206 0
207 0
208 0
209 0
210 0
211 0
212 0
213 0
214 0
215 0
216 0
217 0
218 0
219 0
220 0
221 0
222 0
223 0
224 0
225 0
226 0
227 0
228 0
229 0
230 0
231 0
232 0
233 0
234 0
235 0
236 0
237 0
238 0
239 0
240 0
241 0
242 0
243 0
244 0
245 0
246 0
247 0
248 0
249 0
250 0
251 0
252 0
253 0
254 0
255 0
256 0
257 0
258 0
259 0
260 0
261 0
262 0
263 0
264 0
265 0
266 0
267 0
268 0
269 0
270 0
271 0
272 0
273 0
274 0
275 0
276 0
277 0
278 0
279 0
280 0
281 0
282 0
283 0
284 0
285 0
286 0
287 0
288 0
289 0
290 0
291 0
292 0
293 0
294 0
295 0
296 0
297 0
298 0
299 0
300 0
301 0
302 0
-303 0
304 0
305 0
306 0
307 0
308 0
309 0
310 0
311 0
312 0
313 0
314 0
315 0
316 0
317 0
318 0
319 0
320 0
321 0
322 0
323 0
324 0
325 0
326 0
327 0
328 0
329 0
330 0
331 0
332 0
333 0
334 0
335 0
336 0
337 0
338 0
339 0
340 0
341 0
342 0
343 0
344 0
345 0
346 0
347 0
348 0
349 0
350 0
351 0
352 0
353 0
354 0
355 0
-356 0
357 0
358 0
359 0
360 0
361 0
362 0
363 0
364 0
-365 0
366 0
367 0
368 0
369 0
370 0
371 0
372 0
373 0
374 0
375 0
376 0
377 0
378 0
379 0
380 0
381 0
382 0
383 0
384 0
385 0
386 0
387 0
388 0
389 0
390 0
391 0
392 0
-393 0
394 0
395 0
396 0
397 0
398 0
399 0
400 0
401 0
402 0
403 0
404 0
405 0
406 0
407 0
408 0
409 0
410 0
411 0
412 0
413 0
414 0
415 0
416 0
417 0
418 0
419 0
420 0
421 0
422 0
423 0
424 0
425 0
426 0
427 0
428 0
429 0
430 0
431 0
432 0
433 0
434 0
435 0
436 0
437 0
438 0
439 0
440 0
441 0
442 0
443 0
444 0
445 0
446 0
447 0
448 0
449 0
450 0
451 0
452 0
453 0
-454 0
-455 0
-456 0
-457 0
-458 0
-459 0
-460 0
-461 0
-462 0
-463 0
-464 0
-465 0
-466 0
-467 0
-468 0
-469 0
-470 0
-471 0
-472 0
-473 0
-474 0
-475 0
-476 0
-477 0
-478 0
-479 0
-480 0
-481 0
-482 0
-483 0
-484 0
-485 0
-486 0
-487 0
-488 0
-489 0
-490 0
-491 0
-492 0
-493 0
-494 0
-495 0
-496 0
-497 0
-498 0
-499 0
-500 0
-501 0
-502 0
-503 0
-504 0
-505 0
-506 0
-507 0
-508 0
-509 0
-510 0
-511 0
-512 0
-513 0
-514 0
-515 0
-516 0
-517 0
-518 0
-519 0
-520 0
-521 0
-522 0
-523 0
-524 0
-525 0
-526 0
-527 0
-528 0
-529 0
-530 0
-531 0
-532 0
-533 0
-534 0
-535 0
-536 0
-537 0
-538 0
-539 0
-540 0
-541 0
-542 0
-543 0
-544 0
-545 0
-546 0
-547 0
-548 0
-549 0
-550 0
-551 0
-552 0
-553 0
-554 0
-555 0
-560 0
-561 0
-562 0
-564 0
-565 0
-566 0
-567 0
-568 0
-569 0
-570 0
-571 0
-572 0
-573 0
-574 0
-575 0
-576 0
-577 0
-578 0
-579 0
-580 0
-581 0
-582 0
-583 0
-584 0
-585 0
-586 0
-587 0
-588 0
-590 0
-591 0
-592 0
-593 0
-594 0
-595 0
-596 0
-597 0
-598 0
-599 0
-600 0
-601 0
-602 0
-603 0
-604 0
-605 0
-606 0
-607 0
-608 0
-609 0
-610 0
-611 0
-612 0
-613 0
-614 0
-615 0
-616 0
-617 0
-618 0
-619 0
-620 0
-621 0
-622 0
-623 0
-624 0
-625 0
-626 0
-627 0
-628 0
-629 0
-630 0
-631 0
-632 0
-633 0
-634 0
-635 0
-636 0
-637 0
-638 0
-639 0
-640 0
-641 0
-642 0
-643 0
-644 0
-645 0
-646 0
-647 0
-648 0
-649 0
-650 0
-651 0
-652 0
-653 0
-654 0
-655 0
-656 0
-657 0
-658 0
-659 0
-660 0
-661 0
-662 0
-663 0
-664 0
-665 0
-666 0
-667 0
-668 0
-669 0
-670 0
-671 0
-672 0
-673 0
-674 0
-675 0
-676 0
-677 0
-678 0
-679 0
-680 0
-681 0
-682 0
-683 0
-684 0
-685 0
-686 0
-687 0
-688 0
-689 0
-690 0
-691 0
-692 0
-693 0
-694 0
-695 0
-696 0
-697 0
-698 0
-699 0
-700 0
-701 0
-702 0
-703 0
-704 0
-705 0
-706 0
-707 0
-708 0
-709 0
-710 0
-711 0
-712 0
-713 0
-714 0
-715 0
-716 0
-717 0
-718 0
-719 0
-720 0
-721 0
-722 0
-723 0
-724 0
-725 0
-726 0
-727 0
-728 0
-729 0
-730 0
-731 0
-732 0
-733 0
-734 0
-735 0
-736 0
-737 0
-738 0
-739 0
-740 0
-741 0
-742 0
-743 0
-744 0
-745 0
-746 0
-747 0
-748 0
-749 0
-750 0
-751 0
-752 0
753 0
-754 0
-755 0
-756 0
-757 0
-758 0
-759 0
-760 0
-761 0
-762 0
-763 0
-764 0
-765 0
-766 0
-767 0
-768 0
-769 0
-770 0
-771 0
-772 0
-773 0
-774 0
-775 0
-776 0
-777 0
-778 0
-779 0
-780 0
-781 0
-782 0
-783 0
-784 0
-785 0
-786 0
-787 0
-788 0
-789 0
-790 0
-791 0
-792 0
-793 0
-794 0
-795 0
-796 0
-797 0
-798 0
-799 0
-800 0
-801 0
-802 0
-803 0
-804 0
-805 0
-806 0
-807 0
-808 0
-809 0
-810 0
-811 0
-812 0
-813 0
-814 0
815 0
-816 0
-817 0
-818 0
-819 0
-820 0
-821 0
-822 0
-823 0
-824 0
-825 0
-826 0
-827 0
-828 0
-829 0
-830 0
-831 0
-832 0
-833 0
-834 0
-835 0
-836 0
-837 0
-838 0
-839 0
-840 0
-841 0
-842 0
843 0
-844 0
-845 0
-846 0
-847 0
-848 0
-849 0
-850 0
-851 0
-852 0
-853 0
-854 0
-855 0
-856 0
-857 0
-858 0
-859 0
-860 0
-861 0
-862 0
-863 0
-864 0
-865 0
-866 0
-867 0
-868 0
-869 0
-870 0
-871 0
-872 0
-873 0
-874 0
-875 0
-876 0
-877 0
-878 0
-879 0
-880 0
-881 0
-882 0
-883 0
-884 0
-885 0
-886 0
-887 0
-888 0
-889 0
-890 0
-891 0
-892 0
-893 0
-894 0
-895 0
-896 0
-897 0
-898 0
-899 0
-900 0
-901 0
-902 0
-903 0
904 0
905 0
906 0
-907 0
911 0
-912 0
-916 0
922 0
923 0
926 0
-927 0
930 0
931 0
-933 0
937 0
956 0
957 0
966 0
974 0
982 0
983 0
-1034 0
1035 0
1036 0
1037 0
1038 0
1039 0
-1046 0
1104 0
1168 0
1189 0
1232 0
1261 0
1290 0
1319 0
1348 0
1377 0
-1450 0
1451 0
1452 0
1453 0
1454 0
1456 0
1457 0
1458 0
1459 0
1460 0
1461 0
1462 0
1463 0
1464 0
1465 0
1466 0
1467 0
1468 0
1469 0
1470 0
1471 0
1472 0
1473 0
1474 0
1475 0
1476 0
1477 0
1478 0
1479 0
1480 0
1481 0
1482 0
1483 0
1484 0
1485 0
1486 0
1487 0
1488 0
1489 0
1490 0
1491 0
1554 0
1555 0
1556 0
1557 0
1558 0
1559 0
1560 0
1561 0
1562 0
1563 0
1564 0
1565 0
1566 0
1567 0
1568 0
1569 0
1570 0
1571 0
1572 0
1573 0
1574 0
-1575 0
1576 0
1577 0
1578 0
1579 0
1580 0
1581 0
1582 0
1583 0
1584 0
1585 0
1586 0
1587 0
1588 0
1589 0
1590 0
1591 0
1592 0
1593 0
1594 0
1595 0
1596 0
1597 0
1598 0
1599 0
1600 0
1601 0
1602 0
-1603 0
1604 0
1605 0
1606 0
1607 0
1608 0
1609 0
1610 0
1611 0
1612 0
1613 0
1614 0
1615 0
1616 0
1617 0
1618 0
1619 0
1620 0
1621 0
1622 0
1623 0
1624 0
1625 0
1626 0
1627 0
1628 0
1629 0
1630 0
-1631 0
1632 0
1633 0
1634 0
1635 0
1636 0
1637 0
1638 0
1639 0
1640 0
1641 0
1642 0
1643 0
1644 0
1645 0
1646 0
1647 0
1648 0
1649 0
1650 0
1651 0
1652 0
1653 0
1654 0
1655 0
1656 0
1657 0
1658 0
1659 0
1660 0
1661 0
1662 0
1663 0
1664 0
1665 0
1666 0
1667 0
1668 0
1669 0
1670 0
1671 0
1672 0
1673 0
1674 0
1675 0
1676 0
1677 0
1678 0
1679 0
1680 0
1681 0
1682 0
1683 0
1684 0
1685 0
1686 0
1687 0
1688 0
1689 0
1690 0
1691 0
1692 0
1693 0
1694 0
1695 0
1696 0
1697 0
1698 0
1699 0
1700 0
1701 0
1702 0
1703 0
1704 0
1705 0
1706 0
1707 0
1708 0
1709 0
1710 0
1711 0
1712 0
1713 0
1714 0
1715 0
1716 0
1717 0
1718 0
1719 0
1720 0
1721 0
1722 0
1723 0
1724 0
1725 0
1726 0
1727 0
1728 0
1729 0
1730 0
1731 0
1732 0
1733 0
1734 0
1735 0
1736 0
1737 0
1738 0
1739 0
1740 0
1741 0
1742 0
1743 0
1744 0
1745 0
1746 0
1747 0
1748 0
1749 0
1750 0
1751 0
1752 0
1753 0
1754 0
1755 0
1756 0
1757 0
1758 0
1759 0
1760 0
1761 0
1762 0
1763 0
1764 0
1765 0
1766 0
1767 0
1768 0
1769 0
1770 0
1771 0
1772 0
1773 0
1774 0
1775 0
1776 0
1777 0
1778 0
1779 0
1780 0
1781 0
1782 0
1783 0
1784 0
1785 0
1786 0
1787 0
1788 0
1789 0
1790 0
1791 0
1792 0
1793 0
1794 0
1795 0
1796 0
1797 0
1798 0
1799 0
1800 0
1801 0
1802 0
1803 0
1804 0
1805 0
1806 0
1807 0
1808 0
1809 0
1810 0
1811 0
1812 0
1813 0
1814 0
1815 0
1816 0
1817 0
1818 0
1819 0
1820 0
1821 0
1822 0
1823 0
1824 0
1825 0
1826 0
1827 0
1828 0
1829 0
1830 0
1831 0
1832 0
1833 0
1834 0
1835 0
1836 0
1837 0
1838 0
1839 0
1840 0
1841 0
1842 0
1843 0
1844 0
1845 0
1846 0
1847 0
1848 0
1849 0
1850 0
1851 0
1852 0
1853 0
1854 0
1855 0
1856 0
1857 0
1858 0
1859 0
1860 0
1861 0
1862 0
1863 0
1864 0
1865 0
1866 0
1867 0
1868 0
1869 0
1870 0
1871 0
1872 0
1873 0
1874 0
1875 0
1876 0
1877 0
1878 0
1879 0
1880 0
1930 0
1931 0
1932 0
1933 0
1934 0
1935 0
1936 0
1937 0
1938 0
1939 0
1940 0
1941 0
1942 0
1943 0
1944 0
1945 0
1946 0
1947 0
1948 0
1949 0
1950 0
1951 0
1952 0
1953 0
1954 0
1955 0
1956 0
1957 0
1958 0
1959 0
1960 0
1961 0
1962 0
1963 0
1964 0
1965 0
1966 0
1967 0
1968 0
1970 0
1971 0
1972 0
1973 0
1974 0
1975 0
1976 0
1977 0
1978 0
1979 0
1980 0
1981 0
1982 0
1983 0
1985 0
1986 0
1987 0
1988 0
1990 0
1991 0
1992 0
1993 0
1994 0
1995 0
1996 0
1997 0
1999 0
2000 0
2001 0
2002 0
2003 0
2004 0
2005 0
2007 0
2008 0
2009 0
2010 0
2969 0
-2970 0
-2971 0
-2972 0
-2973 0
-2974 0
-2975 0
-2976 0
-2977 0
-2978 0
-2979 0
-2980 0
-2981 0
-2982 0
-2983 0
-2984 0
-2985 0
-2986 0
-2987 0
-2988 0
-2989 0
-2990 0
-2991 0
-2992 0
-2993 0
-2994 0
-2995 0
-2996 0
-2997 0
-2998 0
-2999 0
-3000 0
-3001 0
-3002 0
-3003 0
-3004 0
-3005 0
-3006 0
-3007 0
-3008 0
-3009 0
-3010 0
-3011 0
-3012 0
-3013 0
-3014 0
-3015 0
-3016 0
-3017 0
-3018 0
-3019 0
-3020 0
-3021 0
-3022 0
-3023 0
-3024 0
-3025 0
-3026 0
-3027 0
-3028 0
-3029 0
-3030 0
-3031 0
-3032 0
-3033 0
-3034 0
-3035 0
-3036 0
-3037 0
-3038 0
-3039 0
-3040 0
-3041 0
-3042 0
-3043 0
-3044 0
-3045 0
-3046 0
-3047 0
-3048 0
-3049 0
-3050 0
-3051 0
-3052 0
-3053 0
-3054 0
-3055 0
-3056 0
-3057 0
-3058 0
-3059 0
-3060 0
-3061 0
-3062 0
-3063 0
-3064 0
-3065 0
-3066 0
-3067 0
-3068 0
-3069 0
-3070 0
-3071 0
-3076 0
-3077 0
-3078 0
-3080 0
-3081 0
-3082 0
-3083 0
-3084 0
-3085 0
-3086 0
-3087 0
-3088 0
-3089 0
-3090 0
-3091 0
-3092 0
-3093 0
-3094 0
-3095 0
-3096 0
-3097 0
-3098 0
-3099 0
-3100 0
-3101 0
-3102 0
-3103 0
-3104 0
-3106 0
-3107 0
-3108 0
-3109 0
-3110 0
-3111 0
-3112 0
-3113 0
-3114 0
-3115 0
-3116 0
-3117 0
-3118 0
-3119 0
-3120 0
-3121 0
-3122 0
-3123 0
-3124 0
-3125 0
-3126 0
-3127 0
-3128 0
-3129 0
-3130 0
-3131 0
-3132 0
-3133 0
-3134 0
-3135 0
-3136 0
-3137 0
-3138 0
-3139 0
-3140 0
-3141 0
-3142 0
-3143 0
-3144 0
-3145 0
-3146 0
-3147 0
-3148 0
-3149 0
-3150 0
-3151 0
-3152 0
-3153 0
-3154 0
-3155 0
-3156 0
-3157 0
-3158 0
-3159 0
-3160 0
-3161 0
-3162 0
-3163 0
-3164 0
-3165 0
-3166 0
-3167 0
-3168 0
-3169 0
-3170 0
-3171 0
-3172 0
-3173 0
-3174 0
-3175 0
-3176 0
-3177 0
-3178 0
-3179 0
-3180 0
-3181 0
-3182 0
-3183 0
-3184 0
-3185 0
-3186 0
-3187 0
-3188 0
-3189 0
-3190 0
-3191 0
-3192 0
-3193 0
-3194 0
-3195 0
-3196 0
-3197 0
-3198 0
-3199 0
-3200 0
-3201 0
-3202 0
-3203 0
-3204 0
-3205 0
-3206 0
-3207 0
-3208 0
-3209 0
-3210 0
-3211 0
-3212 0
-3213 0
-3214 0
-3215 0
-3216 0
-3217 0
-3218 0
-3219 0
-3220 0
-3221 0
-3222 0
-3223 0
-3224 0
-3225 0
-3226 0
-3227 0
-3228 0
-3229 0
-3230 0
-3231 0
-3232 0
-3233 0
-3234 0
-3235 0
-3236 0
-3237 0
-3238 0
-3239 0
-3240 0
-3241 0
-3242 0
-3243 0
-3244 0
-3245 0
-3246 0
-3247 0
-3248 0
-3249 0
-3250 0
-3251 0
-3252 0
-3253 0
-3254 0
-3255 0
-3256 0
-3257 0
-3258 0
-3259 0
-3260 0
-3261 0
-3262 0
-3263 0
-3264 0
-3265 0
-3266 0
-3267 0
-3268 0
-3269 0
-3270 0
-3271 0
-3272 0
-3273 0
-3274 0
-3275 0
-3276 0
-3277 0
-3278 0
-3279 0
-3280 0
-3281 0
-3282 0
-3283 0
-3284 0
-3285 0
-3286 0
-3287 0
-3288 0
-3289 0
-3290 0
-3291 0
-3292 0
-3293 0
-3294 0
-3295 0
-3296 0
-3297 0
-3298 0
-3299 0
-3300 0
-3301 0
-3302 0
-3303 0
-3304 0
-3305 0
-3306 0
-3307 0
-3308 0
-3309 0
-3310 0
-3311 0
-3312 0
-3313 0
-3314 0
-3315 0
-3316 0
-3317 0
-3318 0
-3319 0
-3320 0
-3321 0
-3322 0
-3323 0
-3324 0
-3325 0
-3326 0
-3327 0
-3328 0
-3329 0
-3330 0
-3331 0
-3332 0
-3333 0
-3334 0
-3335 0
-3336 0
-3337 0
-3338 0
-3339 0
-3340 0
-3341 0
-3342 0
-3343 0
-3344 0
-3345 0
-3346 0
-3347 0
-3348 0
-3349 0
-3350 0
-3351 0
-3352 0
-3353 0
-3354 0
-3355 0
-3356 0
-3357 0
-3358 0
-3359 0
-3360 0
-3361 0
-3362 0
-3363 0
-3364 0
-3365 0
-3366 0
-3367 0
-3368 0
-3369 0
-3370 0
-3371 0
-3372 0
-3373 0
-3374 0
-3375 0
-3376 0
-3377 0
-3378 0
-3379 0
-3380 0
-3381 0
-3382 0
-3383 0
-3384 0
-3385 0
-3386 0
-3387 0
-3388 0
-3389 0
-3390 0
-3391 0
-3392 0
-3393 0
-3394 0
-3395 0
-3396 0
-3397 0
-3398 0
-3399 0
-3400 0
-3401 0
-3402 0
-3403 0
-3404 0
-3405 0
-3406 0
-3407 0
-3408 0
-3409 0
-3410 0
-3411 0
-3412 0
-3413 0
-3414 0
-3415 0
-3416 0
-3417 0
-3418 0
-3419 0
-2205 0
-2206 0
-2207 0
-2208 0
-2209 0
-2210 0
-2211 0
-2212 0
-2213 0
-2214 0
-2215 0
-2216 0
-2217 0
-2218 0
-2219 0
-2220 0
-2221 0
-2222 0
-2223 0
-2224 0
-2225 0
-2226 0
-2227 0
-2228 0
-2229 0
-2230 0
-2231 0
-2232 0
-2233 0
-2234 0
-2235 0
-2236 0
-2237 0
-2238 0
-2239 0
-2240 0
-2241 0
-2242 0
-2243 0
-2244 0
-2245 0
-2246 0
-2247 0
-2248 0
-2249 0
-2250 0
-2251 0
-2252 0
-2253 0
-2254 0
-2255 0
-2256 0
-2257 0
-2258 0
-2259 0
-2260 0
-2261 0
-2262 0
-2263 0
-2264 0
-2265 0
-2266 0
-2267 0
-2268 0
-2269 0
-2270 0
-2271 0
-2272 0
-2273 0
-2274 0
-2275 0
-2276 0
-2277 0
-2278 0
-2279 0
-2280 0
-2281 0
-2282 0
-2283 0
-2284 0
-2285 0
-2286 0
-2287 0
-2288 0
-2289 0
-2290 0
-2291 0
-2292 0
-2293 0
-2294 0
-2295 0
-2296 0
-2297 0
-2298 0
-2299 0
-2300 0
-2301 0
-2302 0
-2303 0
-2304 0
-2305 0
-2306 0
-2307 0
-2308 0
-2309 0
-2310 0
-2311 0
-2312 0
-2313 0
-2314 0
-2315 0
-2316 0
-2317 0
-2318 0
-2319 0
-2320 0
-2321 0
-2322 0
-2323 0
-2324 0
-2325 0
-2326 0
-2327 0
-2328 0
-2329 0
-2330 0
-2331 0
-2332 0
-2333 0
-2334 0
-2335 0
-2336 0
-2337 0
-2338 0
-2339 0
-2340 0
-2341 0
-2342 0
-2343 0
-2344 0
-2345 0
-2346 0
-2347 0
-2348 0
-2349 0
-2350 0
-2351 0
-2352 0
-2353 0
-2354 0
-2355 0
-2356 0
-2357 0
-2358 0
-2359 0
-2360 0
-2361 0
-2362 0
-2363 0
-2364 0
-2365 0
-2366 0
-2367 0
-2368 0
-2369 0
-2370 0
-2127 0
-2371 0
-2372 0
-2153 0
-2154 0
-2155 0
-2156 0
-2473 0
-2474 0
-2475 0
-2476 0
-2477 0
-2478 0
-2479 0
-2480 0
-2081 0
-2082 0
-2083 0
-2084 0
-2085 0
-2086 0
-2087 0
-2088 0
-2089 0
-2373 0
-2374 0
-2090 0
-2091 0
-2375 0
-2376 0
-2092 0
-2093 0
-2094 0
-2095 0
-2096 0
-2097 0
-2098 0
-2099 0
-2100 0
-2101 0
-2102 0
-2103 0
-2130 0
-2131 0
-2128 0
-2132 0
-2133 0
-2377 0
-2134 0
-2378 0
-2135 0
-2136 0
-2379 0
-2137 0
-2380 0
-2138 0
-2139 0
-2140 0
-2141 0
-2142 0
-2143 0
-2144 0
-2145 0
-2146 0
-2147 0
-2148 0
-2381 0
-2149 0
-2150 0
-2151 0
-2152 0
-2104 0
-2382 0
-2105 0
-2106 0
-2383 0
-2107 0
-2108 0
-2384 0
-2109 0
-2385 0
-2110 0
-2111 0
-2112 0
-2113 0
-2114 0
-2115 0
-2116 0
-2117 0
-2118 0
-2119 0
-2120 0
-2121 0
-2122 0
-2386 0
-2123 0
-2129 0
-2124 0
-2125 0
-2387 0
-2126 0
-2388 0
-2865 0
-2866 0
-2867 0
-2389 0
-2868 0
-2390 0
-2869 0
-2870 0
-2871 0
-2872 0
-2873 0
-2874 0
-2875 0
-2876 0
-2877 0
-2878 0
-2879 0
-2880 0
-2881 0
-2882 0
-2883 0
-2884 0
-2885 0
-2886 0
-2391 0
-2887 0
-2392 0
-2011 0
-2012 0
-2013 0
-2393 0
-2394 0
-2014 0
-2015 0
-2016 0
-2017 0
-2018 0
-2019 0
-2020 0
-2021 0
-2022 0
-2023 0
-2395 0
-2024 0
-2839 0
-2025 0
-2026 0
-2027 0
-2028 0
-2029 0
-2030 0
-2396 0
-2031 0
-2397 0
-2032 0
-2033 0
-2398 0
-2399 0
-2842 0
-2843 0
-2844 0
-2845 0
-2846 0
-2847 0
-2848 0
-2849 0
-2400 0
-2850 0
-2401 0
-2851 0
-2852 0
-2853 0
-2402 0
-2854 0
-2855 0
-2856 0
-2857 0
-2858 0
-2859 0
-2860 0
-2861 0
-2862 0
-2863 0
-2864 0
-2450 0
-2451 0
-2452 0
-2403 0
-2453 0
-2454 0
-2455 0
-2456 0
-2404 0
-2457 0
-2405 0
-2458 0
-2406 0
-2459 0
-2407 0
-2460 0
-2461 0
-2462 0
-2463 0
-2464 0
-2465 0
-2466 0
-2467 0
-2468 0
-2469 0
-2470 0
-2471 0
-2472 0
-2157 0
-2158 0
-2159 0
-2160 0
-2161 0
-2162 0
-2163 0
-2164 0
-2165 0
-2166 0
-2167 0
-2168 0
-2169 0
-2170 0
-2171 0
-2172 0
-2840 0
-2173 0
-2174 0
-2175 0
-2176 0
-2177 0
-2178 0
-2179 0
-2481 0
-2482 0
-2483 0
-2484 0
-2485 0
-2486 0
-2487 0
-2488 0
-2489 0
-2490 0
-2491 0
-2492 0
-2493 0
-2494 0
-2495 0
-2496 0
-2497 0
-2498 0
-2499 0
-2500 0
-2501 0
-2502 0
-2503 0
-2504 0
-2505 0
-2506 0
-2507 0
-2508 0
-2509 0
-2510 0
-2511 0
-2034 0
-2841 0
-2035 0
-2036 0
-2037 0
-2038 0
-2039 0
-2040 0
-2041 0
-2042 0
-2043 0
-2044 0
-2045 0
-2046 0
-2047 0
-2048 0
-2049 0
-2050 0
-2051 0
-2052 0
-2053 0
-2054 0
-2055 0
-2056 0
-2057 0
-2058 0
-2059 0
-2060 0
-2061 0
-2062 0
-2063 0
-2064 0
-2065 0
-2066 0
-2067 0
-2068 0
-2069 0
-2070 0
-2071 0
-2072 0
-2073 0
-2074 0
-2075 0
-2076 0
-2077 0
-2078 0
-2079 0
-2080 0
-2180 0
-2181 0
-2182 0
-2183 0
-2184 0
-2185 0
-2186 0
-2187 0
-2188 0
-2189 0
-2190 0
-2191 0
-2192 0
-2193 0
-2194 0
-2195 0
-2196 0
-2197 0
-2198 0
-2199 0
-2200 0
-2201 0
-2202 0
-2203 0
-2204 0

